c FILE: San1000.clq
c
c SOURCE: Laura Sanchis (laura@cs.colgate.edu)
c
c DESCRIPTION:  Randomly generated graph of similar size to "san"
c               graphs, but with differenct clique characteristics
c
c REFERENCE: "Test Case Construction for the Vertex Cover Problem", 
c DIMACS Workshop on Computational Support for Discrete Mathematics, 
c March, 1992, with additional work in a to be published technical
c report.
c
c 1000 vertices 250500 edges 15 max clique
c 1000 249000 985 1499 40473 7
p edge 1000 250500